Fe10 Si6                                
   1.00000000000000     
     6.9104210358247053    0.0000000000000000    0.0000000000000000
    -3.4552105179123527    5.9846001678705685    0.0000000000000000
     0.0000000000000000    0.0000000000000000    4.7718825706919326
   Fe   Si
    10     6
Direct
  0.0000000000000000  0.2334002629791242  0.7500000000000000
 -0.0000000000000000  0.7665997370208795  0.2500000000000000
  0.2334002629791242 -0.0000000000000000  0.7500000000000000
  0.2334002629791242  0.2334002629791242  0.2500000000000000
  0.3333333333330017  0.6666666666669983 -0.0000000000000000
  0.3333333333330017  0.6666666666669983  0.5000000000000000
  0.6666666666669983  0.3333333333330017 -0.0000000000000000
  0.6666666666669983  0.3333333333330017  0.5000000000000000
  0.7665997370208795 -0.0000000000000000  0.2500000000000000
  0.7665997370208795  0.7665997370208795  0.7500000000000000
  0.0000000000000000  0.4021995079356341  0.2500000000000000
 -0.0000000000000000  0.5978004920643650  0.7500000000000000
  0.4021995079356341 -0.0000000000000000  0.2500000000000000
  0.4021995079356341  0.4021995079356341  0.7500000000000000
  0.5978004920643650 -0.0000000000000000  0.7500000000000000
  0.5978004920643650  0.5978004920643650  0.2500000000000000
 
  0.00000000E+00  0.00000000E+00  0.00000000E+00
  0.00000000E+00  0.00000000E+00  0.00000000E+00
  0.00000000E+00  0.00000000E+00  0.00000000E+00
  0.00000000E+00  0.00000000E+00  0.00000000E+00
  0.00000000E+00  0.00000000E+00  0.00000000E+00
  0.00000000E+00  0.00000000E+00  0.00000000E+00
  0.00000000E+00  0.00000000E+00  0.00000000E+00
  0.00000000E+00  0.00000000E+00  0.00000000E+00
  0.00000000E+00  0.00000000E+00  0.00000000E+00
  0.00000000E+00  0.00000000E+00  0.00000000E+00
  0.00000000E+00  0.00000000E+00  0.00000000E+00
  0.00000000E+00  0.00000000E+00  0.00000000E+00
  0.00000000E+00  0.00000000E+00  0.00000000E+00
  0.00000000E+00  0.00000000E+00  0.00000000E+00
  0.00000000E+00  0.00000000E+00  0.00000000E+00
  0.00000000E+00  0.00000000E+00  0.00000000E+00
