O1 Zn1                                  
   1.00000000000000     
     0.0000000000000000    2.2414140010214743    2.2414140010214743
     2.2414140010214743    0.0000000000000000    2.2414140010214743
     2.2414140010214743    2.2414140010214743   -0.0000000000000000
   O    Zn
     1     1
Direct
  0.7500000000000000  0.7500000000000000  0.7500000000000000
 -0.0000000000000000  0.0000000000000000 -0.0000000000000000
 
  0.00000000E+00  0.00000000E+00  0.00000000E+00
  0.00000000E+00  0.00000000E+00  0.00000000E+00
