Primitive Cell
  1.000000
    3.98824569255229    0.00000000000000    0.00000000000000
    0.00000000000000    3.98824569255229    0.00000000000000
    0.00000000000000    0.00000000000000    4.09274445159002
  O   Pb  Ti
   3   1   1
DIRECT
    0.0000000000000000    0.5000000000000000    0.6119233648469250     O1
    0.5000000000000000    0.0000000000000000    0.6119233648469250     O2
    0.5000000000000000    0.5000000000000000    0.0996640287173234     O3
    0.0000000000000000    0.0000000000000000    0.0162785420067130    Pb1
    0.5000000000000000    0.5000000000000000    0.5576106995821336    Ti1
