Primitive Cell
  1.000000
   -2.02914820206143    2.02914820206143    5.12652324812752
    2.02914820206143   -2.02914820206143    5.12652324812752
    2.02914820206143    2.02914820206143   -5.12652324812752
  Cs  F   Li
   1   3   2
DIRECT
    0.0000000000000000    0.0000000000000000    0.0000000000000000    Cs1
    0.7500000000000000    0.2500000000000000    0.5000000000000000     F1
    0.5000000000000000    0.5000000000000000    0.0000000000000000     F2
    0.2500000000000000    0.7500000000000000    0.5000000000000000     F3
    0.3093119291285830    0.3093119291285830    0.0000000000000000    Li1
    0.6906880708714169    0.6906880708714169    0.0000000000000000    Li2
