Primitive Cell
  1.000000
   13.13945240095571    0.00000000000000    0.00000000000000
    0.00000000000000    4.65200592465175    0.00000000000000
    0.00000000000000    0.00000000000000    4.63410639072684
  Te  Pb
   4   4
DIRECT
    0.8750308447940379    0.7500000000000000    0.7494176026883668    Te1
    0.3750308447940380    0.7500000000000000    0.7505823973116332    Te2
    0.1249691552059621    0.2500000000000000    0.2505823973116332    Te3
    0.6249691552059621    0.2500000000000000    0.2494176026883668    Te4
    0.6251204982463874    0.7500000000000000    0.7478526989179686    Pb1
    0.1251204982463874    0.7500000000000000    0.7521473010820314    Pb2
    0.3748795017536126    0.2500000000000000    0.2521473010820314    Pb3
    0.8748795017536126    0.2500000000000000    0.2478526989179686    Pb4
