La4 W4 N12                              
   1.00000000000000     
     5.6720776805307755    0.0000000000000000    0.0000000000000000
     0.0000000000000000    5.7238199497205446    0.0000000000000000
     0.0000000000000000    0.0000000000000000    8.0165615975153610
   La   W    N 
     4     4    12
Direct
  0.4907959747777201  0.0024192251064211  0.2500000000000000
  0.9907959747777201  0.4975807748935788  0.2500000000000000
  0.5092040252222799  0.9975807748935858  0.7500000000000000
  0.0092040252222799  0.5024192251064142  0.7500000000000000
  0.5000000000000000  0.5000000000000000 -0.0000000000000000
 -0.0000000000000000 -0.0000000000000000  0.5000000000000000
  0.5000000000000000  0.5000000000000000  0.5000000000000000
 -0.0000000000000000 -0.0000000000000000 -0.0000000000000000
  0.2382186364712911  0.2599045240847449  0.4710459796425482
  0.7382186364712909  0.2400954759152552  0.0289540203574591
  0.7617813635287091  0.7400954759152552  0.9710459796425476
  0.2617813635287160  0.7599045240847448  0.5289540203574524
  0.7617813635287091  0.7400954759152552  0.5289540203574524
  0.2617813635287160  0.7599045240847448  0.9710459796425476
  0.2382186364712911  0.2599045240847449  0.0289540203574591
  0.7382186364712909  0.2400954759152552  0.4710459796425482
  0.5020400543964816  0.5554428137386782  0.2500000000000000
  0.0020400543964746  0.9445571862613218  0.2500000000000000
  0.4979599456035326  0.4445571862613221  0.7500000000000000
  0.9979599456035184  0.0554428137386780  0.7500000000000000
 
  0.00000000E+00  0.00000000E+00  0.00000000E+00
  0.00000000E+00  0.00000000E+00  0.00000000E+00
  0.00000000E+00  0.00000000E+00  0.00000000E+00
  0.00000000E+00  0.00000000E+00  0.00000000E+00
  0.00000000E+00  0.00000000E+00  0.00000000E+00
  0.00000000E+00  0.00000000E+00  0.00000000E+00
  0.00000000E+00  0.00000000E+00  0.00000000E+00
  0.00000000E+00  0.00000000E+00  0.00000000E+00
  0.00000000E+00  0.00000000E+00  0.00000000E+00
  0.00000000E+00  0.00000000E+00  0.00000000E+00
  0.00000000E+00  0.00000000E+00  0.00000000E+00
  0.00000000E+00  0.00000000E+00  0.00000000E+00
  0.00000000E+00  0.00000000E+00  0.00000000E+00
  0.00000000E+00  0.00000000E+00  0.00000000E+00
  0.00000000E+00  0.00000000E+00  0.00000000E+00
  0.00000000E+00  0.00000000E+00  0.00000000E+00
  0.00000000E+00  0.00000000E+00  0.00000000E+00
  0.00000000E+00  0.00000000E+00  0.00000000E+00
  0.00000000E+00  0.00000000E+00  0.00000000E+00
  0.00000000E+00  0.00000000E+00  0.00000000E+00
