Mo2 H4                                  
   1.00000000000000     
     1.5349999999999999   -2.6586979999999998    0.0000000000000000
     1.5349999999999999    2.6586979999999998    0.0000000000000000
     0.0000000000000000    0.0000000000000000    4.7100000000000000
   Mo   H 
     2     4
Direct
  0.6666669999999968  0.3333330000000032  0.4369999999999976
  0.3333330000000032  0.6666669999999968  0.9369999999999976
  0.0000000000000000  0.0000000000000000  0.5700000000000003
  0.0000000000000000  0.0000000000000000  0.0700000000000003
  0.6666669999999968  0.3333330000000032  0.8179999999999978
  0.3333330000000032  0.6666669999999968  0.3179999999999978
 
  0.00000000E+00  0.00000000E+00  0.00000000E+00
  0.00000000E+00  0.00000000E+00  0.00000000E+00
  0.00000000E+00  0.00000000E+00  0.00000000E+00
  0.00000000E+00  0.00000000E+00  0.00000000E+00
  0.00000000E+00  0.00000000E+00  0.00000000E+00
  0.00000000E+00  0.00000000E+00  0.00000000E+00
