Fe8 W4 C4                               
   1.00000000000000     
     3.8437388093108886    0.0000000000000000    0.0000000000000000
     0.0000000000000000    5.8963024212421491    0.0000000000000000
     0.0000000000000000    0.0000000000000000    7.7174555423088140
   Fe   W    C 
     8     4     4
Direct
  0.1403813630300039  0.6736562313769524  0.0645516908599528
  0.3596186369699958  0.1736562313769508  0.4354483091400471
  0.8596186369699966  0.3263437686230495  0.5645516908599539
  0.6403813630300034  0.8263437686230476  0.9354483091400461
  0.8596186369699966  0.3263437686230495  0.9354483091400461
  0.6403813630300034  0.8263437686230476  0.5645516908599539
  0.1403813630300039  0.6736562313769524  0.4354483091400471
  0.3596186369699958  0.1736562313769508  0.0645516908599528
  0.6408035089515547  0.5364425583140180  0.2500000000000000
  0.8591964910484453  0.0364425583140175  0.2500000000000000
  0.3591964910484456  0.4635574416859816  0.7500000000000000
  0.1408035089515548  0.9635574416859820  0.7500000000000000
  0.3636783569618244  0.8668587665347396  0.2500000000000000
  0.1363216430381750  0.3668587665347381  0.2500000000000000
  0.6363216430381743  0.1331412334652614  0.7500000000000000
  0.8636783569618257  0.6331412334652604  0.7500000000000000
 
  0.00000000E+00  0.00000000E+00  0.00000000E+00
  0.00000000E+00  0.00000000E+00  0.00000000E+00
  0.00000000E+00  0.00000000E+00  0.00000000E+00
  0.00000000E+00  0.00000000E+00  0.00000000E+00
  0.00000000E+00  0.00000000E+00  0.00000000E+00
  0.00000000E+00  0.00000000E+00  0.00000000E+00
  0.00000000E+00  0.00000000E+00  0.00000000E+00
  0.00000000E+00  0.00000000E+00  0.00000000E+00
  0.00000000E+00  0.00000000E+00  0.00000000E+00
  0.00000000E+00  0.00000000E+00  0.00000000E+00
  0.00000000E+00  0.00000000E+00  0.00000000E+00
  0.00000000E+00  0.00000000E+00  0.00000000E+00
  0.00000000E+00  0.00000000E+00  0.00000000E+00
  0.00000000E+00  0.00000000E+00  0.00000000E+00
  0.00000000E+00  0.00000000E+00  0.00000000E+00
  0.00000000E+00  0.00000000E+00  0.00000000E+00
