Primitive Cell
  1.000000
    0.00000000000000    2.24141400102147    2.24141400102147
    2.24141400102147    0.00000000000000    2.24141400102147
    2.24141400102147    2.24141400102147    0.00000000000000
  O   Zn
   1   1
DIRECT
    0.7500000000000000    0.7500000000000000    0.7500000000000000     O1
    0.0000000000000000    0.0000000000000000    0.0000000000000000    Zn1
