Am2 I6                                  
   1.00000000000000     
     2.1412628895311685   -8.2035725222745217    0.0000000000000000
     2.1412628895311685    8.2035725222745217    0.0000000000000000
     0.0000000000000000    0.0000000000000000   10.1171603839515516
   Am   I 
     2     6
Direct
  0.2569624554086530  0.7430375445913527  0.2500000000000000
  0.7430375445913527  0.2569624554086530  0.7500000000000000
  0.1047021247018905  0.8952978752981108  0.7500000000000000
  0.3408056953102858  0.6591943046897107  0.9312952109189845
  0.3408056953102858  0.6591943046897107  0.5687047890810155
  0.6591943046897107  0.3408056953102858  0.4312952109189616
  0.6591943046897107  0.3408056953102858  0.0687047890810297
  0.8952978752981108  0.1047021247018905  0.2500000000000000
 
  0.00000000E+00  0.00000000E+00  0.00000000E+00
  0.00000000E+00  0.00000000E+00  0.00000000E+00
  0.00000000E+00  0.00000000E+00  0.00000000E+00
  0.00000000E+00  0.00000000E+00  0.00000000E+00
  0.00000000E+00  0.00000000E+00  0.00000000E+00
  0.00000000E+00  0.00000000E+00  0.00000000E+00
  0.00000000E+00  0.00000000E+00  0.00000000E+00
  0.00000000E+00  0.00000000E+00  0.00000000E+00
