Primitive Cell
  1.000000
    4.23602565024878    0.00000000000000    0.00000000000000
   -2.11801282512439    3.66850582419794    0.00000000000000
    0.00000000000000    0.00000000000000    5.29598737706035
  K   Zn  As
   1   1   1
DIRECT
    0.0000000000000000    0.0000000000000000    0.0000000000000000     K1
    0.3333333333333333    0.6666666666666666    0.5000000000000000    Zn1
    0.6666666666666666    0.3333333333333333    0.5000000000000000    As1
