Cs1 F3 Li2                              
   1.00000000000000     
    -2.0291482020614322    2.0291482020614322    5.1265232481275174
     2.0291482020614322   -2.0291482020614322    5.1265232481275174
     2.0291482020614322    2.0291482020614322   -5.1265232481275174
   Cs   F    Li
     1     3     2
Direct
 -0.0000000000000000 -0.0000000000000000  0.0000000000000000
  0.7500000000000000  0.2500000000000000  0.5000000000000000
  0.5000000000000000  0.5000000000000000  0.0000000000000000
  0.2500000000000000  0.7500000000000000  0.5000000000000000
  0.3093119291285831  0.3093119291285831  0.0000000000000000
  0.6906880708714193  0.6906880708714193 -0.0000000000000000
 
  0.00000000E+00  0.00000000E+00  0.00000000E+00
  0.00000000E+00  0.00000000E+00  0.00000000E+00
  0.00000000E+00  0.00000000E+00  0.00000000E+00
  0.00000000E+00  0.00000000E+00  0.00000000E+00
  0.00000000E+00  0.00000000E+00  0.00000000E+00
  0.00000000E+00  0.00000000E+00  0.00000000E+00
