F3 Ti1                                  
   1.00000000000000     
     4.0024579412500989    0.0000000000000000    0.0000000000000000
     0.0000000000000000    4.0024579412500989    0.0000000000000000
    -0.0000000000000000   -0.0000000000000000    4.0024579412500989
   F    Ti
     3     1
Direct
  0.0000000000000000  0.0000000000000000  0.5000000000000000
  0.0000000000000000  0.5000000000000000  0.0000000000000000
  0.5000000000000000  0.0000000000000000  0.0000000000000000
  0.0000000000000000  0.0000000000000000  0.0000000000000000
 
  0.00000000E+00  0.00000000E+00  0.00000000E+00
  0.00000000E+00  0.00000000E+00  0.00000000E+00
  0.00000000E+00  0.00000000E+00  0.00000000E+00
  0.00000000E+00  0.00000000E+00  0.00000000E+00
