N1 Pr1                                  
   1.00000000000000     
     3.1596607141688238    0.0000000000000000    0.0000000000000000
     0.0000000000000000    3.1596607141688238    0.0000000000000000
    -0.0000000000000000   -0.0000000000000000    3.1596607141688238
   N    Pr
     1     1
Direct
  0.5000000000000000  0.5000000000000000  0.5000000000000000
  0.0000000000000000  0.0000000000000000  0.0000000000000000
 
  0.00000000E+00  0.00000000E+00  0.00000000E+00
  0.00000000E+00  0.00000000E+00  0.00000000E+00
