624028                                  
   1.00000000000000     
    -4.1752966643315919   -0.0001074093467664    0.0007819024956658
    -0.0001074093467664   -4.1752966643315919    0.0007819024956658
     2.0867697443628472    2.0867697443628472    4.8211501350645101
   Co   La   Si
     1     1     3
Direct
  0.6637900365298377  0.6637900365298377  0.3272401161074072
  0.0057971198598448  0.0057971198598448  0.0106707913825375
  0.7589962124560431  0.2593601603659899  0.5187787999708675
  0.2593601603659899  0.7589962124560431  0.5187787999708675
  0.4275464707882928  0.4275464707882928  0.8535114925683274
 
  0.00000000E+00  0.00000000E+00  0.00000000E+00
  0.00000000E+00  0.00000000E+00  0.00000000E+00
  0.00000000E+00  0.00000000E+00  0.00000000E+00
  0.00000000E+00  0.00000000E+00  0.00000000E+00
  0.00000000E+00  0.00000000E+00  0.00000000E+00
