Te4 Pb4                                 
   1.00000000000000     
     4.6520059246517516   -0.0000000000000004    0.0000000000000000
     0.0000000000000012    4.6341063907268438    0.0000000000000000
     0.0000000000000000    0.0000000000000000   13.1394524009557081
   Te   Pb
     4     4
Direct
  0.2500000000000000  0.2505823973116302  0.8750308447940379
  0.2500000000000000  0.2494176026883636  0.3750308447940275
  0.7500000000000000  0.7494176026883559  0.1249691552059665
  0.7500000000000000  0.7505823973116441  0.6249691552059621
  0.2500000000000000  0.2521473010820284  0.6251204982463874
  0.2500000000000000  0.2478526989179711  0.1251204982463801
  0.7500000000000000  0.7478526989179795  0.3748795017536273
  0.7500000000000000  0.7521473010820205  0.8748795017536126
 
  0.00000000E+00  0.00000000E+00  0.00000000E+00
  0.00000000E+00  0.00000000E+00  0.00000000E+00
  0.00000000E+00  0.00000000E+00  0.00000000E+00
  0.00000000E+00  0.00000000E+00  0.00000000E+00
  0.00000000E+00  0.00000000E+00  0.00000000E+00
  0.00000000E+00  0.00000000E+00  0.00000000E+00
  0.00000000E+00  0.00000000E+00  0.00000000E+00
  0.00000000E+00  0.00000000E+00  0.00000000E+00
