624028                                  
   1.00000000000000     
    -4.1752966643315919   -0.0001074093467664    0.0007819024956658
    -0.0001074093467664   -4.1752966643315919    0.0007819024956658
     2.0867697443628472    2.0867697443628472    4.8211501350645101
   Co   La   Si
     1     1     3
Direct
  0.6637900365298393  0.6637900365298393  0.3272401161074043
  0.0057971198598423  0.0057971198598423  0.0106707913825375
  0.7589962124560401  0.2593601603659934  0.5187787999708675
  0.2593601603659934  0.7589962124560401  0.5187787999708675
  0.4275464707882932  0.4275464707882932  0.8535114925683303
 
  0.00000000E+00  0.00000000E+00  0.00000000E+00
  0.00000000E+00  0.00000000E+00  0.00000000E+00
  0.00000000E+00  0.00000000E+00  0.00000000E+00
  0.00000000E+00  0.00000000E+00  0.00000000E+00
  0.00000000E+00  0.00000000E+00  0.00000000E+00
