Mo2 H4                                  
   1.00000000000000     
     1.5868449312309025   -2.7484960560565406   -0.0000000000000000
     1.5868449312309025    2.7484960560565406   -0.0000000000000000
    -0.0000000000000000   -0.0000000000000000    4.8750898401559875
   Mo   H 
     2     4
Direct
  0.6666669999999968  0.3333330000000032  0.4482812931972891
  0.3333330000000032  0.6666669999999968  0.9482812931972888
 -0.0000000000000000  0.0000000000000000  0.5517359040106207
 -0.0000000000000000  0.0000000000000000  0.0517359040106208
  0.6666669999999968  0.3333330000000032  0.8249828027920858
  0.3333330000000032  0.6666669999999968  0.3249828027920860
 
  0.00000000E+00  0.00000000E+00  0.00000000E+00
  0.00000000E+00  0.00000000E+00  0.00000000E+00
  0.00000000E+00  0.00000000E+00  0.00000000E+00
  0.00000000E+00  0.00000000E+00  0.00000000E+00
  0.00000000E+00  0.00000000E+00  0.00000000E+00
  0.00000000E+00  0.00000000E+00  0.00000000E+00
