Primitive Cell
  1.000000
    9.60867368191701    0.00000000000000    0.00000000000000
    0.00000000000000    6.21082510505207    0.00000000000000
   -1.30094702579199    0.00000000000000    8.30471850890263
  Cl  O   S 
   8   4   4
DIRECT
    0.1327715977275119    0.2020832020678567    0.7627806482638335    Cl1
    0.1327715977275119    0.2979167979321433    0.2627806482638335    Cl2
    0.2562547476983439    0.7032086327287491    0.1014499543562649    Cl3
    0.2562547476983439    0.7967913672712509    0.6014499543562649    Cl4
    0.7437452523016561    0.2032086327287490    0.3985500456437351    Cl5
    0.7437452523016561    0.2967913672712509    0.8985500456437351    Cl6
    0.8672284022724881    0.7020832020678567    0.7372193517361665    Cl7
    0.8672284022724881    0.7979167979321433    0.2372193517361665    Cl8
    0.3970796625056701    0.2114409702697723    0.6376314071000064     O1
    0.3970796625056701    0.2885590297302277    0.1376314071000064     O2
    0.6029203374943299    0.7114409702697723    0.8623685928999936     O3
    0.6029203374943299    0.7885590297302277    0.3623685928999936     O4
    0.3298597213945363    0.0690303026696830    0.7396749095565162     S1
    0.3298597213945363    0.4309696973303170    0.2396749095565163     S2
    0.6701402786054638    0.5690303026696830    0.7603250904434838     S3
    0.6701402786054638    0.9309696973303170    0.2603250904434838     S4
