Primitive Cell
  1.000000
    2.05931056779869   -3.56693042992330    0.00000000000000
    2.05931056779869    3.56693042992330    0.00000000000000
    0.00000000000000    0.00000000000000    5.72148412009607
  H   Sr
   4   2
DIRECT
    0.8332801120546764    0.1667198879453236    0.2500000000000000     H1
    0.1667198879453236    0.8332801120546764    0.7500000000000000     H2
    0.5000000000000000    0.5000000000000000    0.0000000000000000     H3
    0.5000000000000000    0.5000000000000000    0.5000000000000000     H4
    0.1666272195384835    0.8333727804615165    0.2500000000000000    Sr1
    0.8333727804615165    0.1666272195384835    0.7500000000000000    Sr2
