Primitive Cell
  1.000000
    0.00000000000000    2.03423480750238   -6.57691527889799
    0.00000000000000    2.03423480750238    6.57691527889799
    8.54732453309937    0.00000000000000    0.00000000000000
  Pr  Se  O 
   4   3   4
DIRECT
    0.9982270707181161    0.0017729292818838    0.0000000000000000    Pr1
    0.9831313319726172    0.0168686680273829    0.5000000000000000    Pr2
    0.3159241534632947    0.6840758465367054    0.2376291618934838    Pr3
    0.3159241534632947    0.6840758465367054    0.7623708381065162    Pr4
    0.6438792857234392    0.3561207142765607    0.3520784080063970    Se1
    0.6438792857234392    0.3561207142765607    0.6479215919936030    Se2
    0.6859099110653875    0.3140900889346126    0.0000000000000000    Se3
    0.9112379264288211    0.0887620735711789    0.2441874857513647     O1
    0.9112379264288211    0.0887620735711789    0.7558125142486354     O2
    0.4107847877776074    0.5892152122223927    0.0000000000000000     O3
    0.3851841672351471    0.6148158327648530    0.5000000000000000     O4
