K1 Zn1 As1                              
   1.00000000000000     
     2.1145000000000000   -3.6624210000000001    0.0000000000000000
     2.1145000000000000    3.6624210000000001    0.0000000000000000
     0.0000000000000000    0.0000000000000000    5.1170000000000000
   K    Zn   As
     1     1     1
Direct
  0.0000000000000000  0.0000000000000000  0.0000000000000000
  0.3333330000000032  0.6666669999999968  0.5000000000000000
  0.6666669999999968  0.3333330000000032  0.5000000000000000
 
  0.00000000E+00  0.00000000E+00  0.00000000E+00
  0.00000000E+00  0.00000000E+00  0.00000000E+00
  0.00000000E+00  0.00000000E+00  0.00000000E+00
