O3 Pb1 Ti1                              
   1.00000000000000     
     3.9882456925522907    0.0000000000000000    0.0000000000000000
     0.0000000000000000    3.9882456925522907    0.0000000000000000
     0.0000000000000000    0.0000000000000000    4.0927444515900229
   O    Pb   Ti
     3     1     1
Direct
  0.0000000000000000  0.5000000000000000  0.6119233648469250
  0.5000000000000000 -0.0000000000000000  0.6119233648469250
  0.5000000000000000  0.5000000000000000  0.0996640287173234
  0.0000000000000000 -0.0000000000000000  0.0162785420067130
  0.5000000000000000  0.5000000000000000  0.5576106995821336
 
  0.00000000E+00  0.00000000E+00  0.00000000E+00
  0.00000000E+00  0.00000000E+00  0.00000000E+00
  0.00000000E+00  0.00000000E+00  0.00000000E+00
  0.00000000E+00  0.00000000E+00  0.00000000E+00
  0.00000000E+00  0.00000000E+00  0.00000000E+00
