Pr4 Se3 O4                              
   1.00000000000000     
     2.0139000000000000   -6.4628500000000004    0.0000000000000000
     2.0139000000000000    6.4628500000000004    0.0000000000000000
     0.0000000000000000    0.0000000000000000    8.4992000000000001
   Pr   Se   O 
     4     3     4
Direct
  0.0000000000000000  0.0000000000000000  0.0000000000000000
  0.9812599999999989  0.0187400000000011  0.5000000000000000
  0.3151799999999980  0.6848200000000020  0.2363900000000001
  0.3151799999999980  0.6848200000000020  0.7636099999999999
  0.6432999999999964  0.3567000000000036  0.3549999999999969
  0.6432999999999964  0.3567000000000036  0.6450000000000031
  0.6891999999999996  0.3108000000000004  0.0000000000000000
  0.9104999999999990  0.0895000000000010  0.2434000000000012
  0.9104999999999990  0.0895000000000010  0.7565999999999988
  0.4147000000000034  0.5852999999999966  0.0000000000000000
  0.3821999999999974  0.6178000000000026  0.5000000000000000
 
  0.00000000E+00  0.00000000E+00  0.00000000E+00
  0.00000000E+00  0.00000000E+00  0.00000000E+00
  0.00000000E+00  0.00000000E+00  0.00000000E+00
  0.00000000E+00  0.00000000E+00  0.00000000E+00
  0.00000000E+00  0.00000000E+00  0.00000000E+00
  0.00000000E+00  0.00000000E+00  0.00000000E+00
  0.00000000E+00  0.00000000E+00  0.00000000E+00
  0.00000000E+00  0.00000000E+00  0.00000000E+00
  0.00000000E+00  0.00000000E+00  0.00000000E+00
  0.00000000E+00  0.00000000E+00  0.00000000E+00
  0.00000000E+00  0.00000000E+00  0.00000000E+00
