H6 W2                                   
   1.00000000000000     
     0.0000000000000000    3.0712575249099476    0.0707444199995953
     3.0574566110531038    0.0000000000000000    0.0000000000000000
     0.0000000000000000   -1.3351194088965479   -6.9762113440352627
   H    W 
     6     2
Direct
  0.4471469161465257  0.7500000000000000  0.7973630147869734
  0.5528530838534734  0.2500000000000000  0.2026369852130298
  0.0955225785098184  0.7500000000000000  0.2040304377619576
  0.9044774214901823  0.2500000000000000  0.7959695622380460
  0.0802396625164721  0.2500000000000000  0.3719054350288390
  0.9197603374835265  0.7500000000000000  0.6280945649711590
  0.3273631122527917  0.2500000000000000  0.6275870726104718
  0.6726368877472101  0.7500000000000000  0.3724129273895282
 
  0.00000000E+00  0.00000000E+00  0.00000000E+00
  0.00000000E+00  0.00000000E+00  0.00000000E+00
  0.00000000E+00  0.00000000E+00  0.00000000E+00
  0.00000000E+00  0.00000000E+00  0.00000000E+00
  0.00000000E+00  0.00000000E+00  0.00000000E+00
  0.00000000E+00  0.00000000E+00  0.00000000E+00
  0.00000000E+00  0.00000000E+00  0.00000000E+00
  0.00000000E+00  0.00000000E+00  0.00000000E+00
