Sr2 H4                                  
   1.00000000000000     
     0.0000000000000000    0.0000000000000000    4.1186211355973743
     3.5669304299232971    0.0000000000000000   -2.0593105677986872
     0.0000000000000000    5.7214841200960711    0.0000000000000000
   H    Sr
     4     2
Direct
  0.6667198879453244  0.8334397758906562  0.2500000000000000
  0.3332801120546754  0.1665602241093429  0.7500000000000000
 -0.0000000000000000  0.5000000000000000  0.0000000000000000
 -0.0000000000000000  0.5000000000000000  0.5000000000000000
  0.3333727804615236  0.1667455609230419  0.2500000000000000
  0.6666272195384747  0.8332544390769598  0.7500000000000000
 
  0.00000000E+00  0.00000000E+00  0.00000000E+00
  0.00000000E+00  0.00000000E+00  0.00000000E+00
  0.00000000E+00  0.00000000E+00  0.00000000E+00
  0.00000000E+00  0.00000000E+00  0.00000000E+00
  0.00000000E+00  0.00000000E+00  0.00000000E+00
  0.00000000E+00  0.00000000E+00  0.00000000E+00
