Cl8 O4 S4                               
   1.00000000000000     
     9.6083276168076601    0.0000000000000000    0.0815495779010293
     0.0000000000000000    6.2108251050520735    0.0000000000000000
    -1.3713829776223494    0.0000000000000000    8.2933781660258674
   Cl   O    S 
     8     4     4
Direct
  0.1327715977275292  0.2020832020678567  0.7627806482638335
  0.1327715977275292  0.2979167979321152  0.2627806482638326
  0.2562547476983612  0.7032086327287491  0.1014499543562649
  0.2562547476983612  0.7967913672712509  0.6014499543562756
  0.7437452523016437  0.2032086327286882  0.3985500456437605
  0.7437452523016437  0.2967913672713086  0.8985500456437244
  0.8672284022724644  0.7020832020678495  0.7372193517361665
  0.8672284022724644  0.7979167979321505  0.2372193517361797
  0.3970796625056874  0.2114409702697723  0.6376314071000064
  0.3970796625056874  0.2885590297302131  0.1376314071000139
  0.6029203374943474  0.7114409702697450  0.8623685928999936
  0.6029203374943474  0.7885590297302550  0.3623685929000006
  0.3298597213945536  0.0690303026696830  0.7396749095565162
  0.3298597213945536  0.4309696973303084  0.2396749095565272
  0.6701402786054848  0.5690303026696734  0.7603250904434838
  0.6701402786054848  0.9309696973303266  0.2603250904434936
 
  0.00000000E+00  0.00000000E+00  0.00000000E+00
  0.00000000E+00  0.00000000E+00  0.00000000E+00
  0.00000000E+00  0.00000000E+00  0.00000000E+00
  0.00000000E+00  0.00000000E+00  0.00000000E+00
  0.00000000E+00  0.00000000E+00  0.00000000E+00
  0.00000000E+00  0.00000000E+00  0.00000000E+00
  0.00000000E+00  0.00000000E+00  0.00000000E+00
  0.00000000E+00  0.00000000E+00  0.00000000E+00
  0.00000000E+00  0.00000000E+00  0.00000000E+00
  0.00000000E+00  0.00000000E+00  0.00000000E+00
  0.00000000E+00  0.00000000E+00  0.00000000E+00
  0.00000000E+00  0.00000000E+00  0.00000000E+00
  0.00000000E+00  0.00000000E+00  0.00000000E+00
  0.00000000E+00  0.00000000E+00  0.00000000E+00
  0.00000000E+00  0.00000000E+00  0.00000000E+00
  0.00000000E+00  0.00000000E+00  0.00000000E+00
