N1 Th1                                  
   1.00000000000000     
     0.0000000000000000    2.5874263448309058    2.5874263448309058
     2.5874263448309058   -0.0000000000000000    2.5874263448309058
     2.5874263448309058    2.5874263448309058   -0.0000000000000000
   N    Th
     1     1
Direct
  0.5000000000000000  0.5000000000000000  0.5000000000000000
 -0.0000000000000000  0.0000000000000000 -0.0000000000000000
 
  0.00000000E+00  0.00000000E+00  0.00000000E+00
  0.00000000E+00  0.00000000E+00  0.00000000E+00
